c uprop, v00.0, 
c reading from data/prog652.c.cnf
c done reading: 0.002785
p cnf 233 1215
-137 -159 0
-137 -155 0
137 155 159 0
-130 155 159 0
-130 -155 -159 0
130 155 -159 0
130 -155 159 0
137 -149 0
-147 -149 0
-137 147 149 0
-137 -142 147 0
137 -142 -147 0
137 142 147 0
-137 142 -147 0
-138 149 0
-135 -138 0
135 138 -149 0
-132 135 -149 0
-132 -135 149 0
132 135 149 0
132 -135 -149 0
-131 138 0
-128 -131 0
128 131 -138 0
128 -138 -157 0
-128 138 -157 0
128 138 157 0
-128 -138 157 0
131 -161 0
-151 -161 0
-131 151 161 0
-131 151 -162 0
131 -151 -162 0
131 151 162 0
-131 -151 162 0
161 -163 0
-144 -163 0
144 -161 163 0
144 -161 -164 0
-144 161 -164 0
144 161 164 0
-144 -161 164 0
163 -165 0
-140 -165 0
140 -163 165 0
140 -163 -166 0
-140 163 -166 0
140 163 166 0
-140 -163 166 0
155 -167 0
159 -167 0
-155 -159 167 0
-155 -159 -168 0
155 159 -168 0
-155 159 168 0
155 -159 168 0
-147 -155 169 0
-147 -167 169 0
-155 -167 169 0
147 155 -169 0
147 167 -169 0
155 167 -169 0
147 -169 -170 0
155 -169 -170 0
167 -169 -170 0
-147 169 170 0
-155 169 170 0
-167 169 170 0
-147 -155 -167 170 0
147 155 167 -170 0
-135 -147 171 0
-135 -169 171 0
-147 -169 171 0
135 147 -171 0
135 169 -171 0
147 169 -171 0
135 -171 -172 0
147 -171 -172 0
169 -171 -172 0
-135 171 172 0
-147 171 172 0
-169 171 172 0
-135 -147 -169 172 0
135 147 169 -172 0
-128 -135 173 0
-128 -171 173 0
-135 -171 173 0
128 135 -173 0
128 171 -173 0
135 171 -173 0
-126 128 -173 0
-126 135 -173 0
-126 171 -173 0
126 -128 173 0
126 -135 173 0
126 -171 173 0
126 -128 -135 -171 0
-126 128 135 171 0
125 -128 -151 0
125 -151 -173 0
125 -128 -173 0
-125 128 151 0
-125 151 173 0
-125 128 173 0
-124 -125 151 0
-124 -125 128 0
-124 -125 173 0
124 125 -151 0
124 125 -128 0
124 125 -173 0
124 -128 -151 -173 0
-124 128 151 173 0
123 -144 -151 0
123 -125 -144 0
123 -125 -151 0
-123 144 151 0
-123 125 144 0
-123 125 151 0
-122 -123 144 0
-122 -123 151 0
-122 -123 125 0
122 123 -144 0
122 123 -151 0
122 123 -125 0
122 -125 -144 -151 0
-122 125 144 151 0
121 -140 -144 0
121 -123 -140 0
121 -123 -144 0
-121 140 144 0
-121 123 140 0
-121 123 144 0
-121 140 -158 0
-121 144 -158 0
-121 123 -158 0
121 -140 158 0
121 -144 158 0
121 -123 158 0
-123 -140 -144 158 0
123 140 144 -158 0
140 -153 0
121 -153 0
-121 -140 153 0
-121 -140 -146 0
121 140 -146 0
121 -140 146 0
-121 140 146 0
-133 170 0
-133 159 0
133 -159 -170 0
-127 -159 -170 0
-127 159 170 0
127 159 -170 0
127 -159 170 0
150 -155 -172 0
-133 150 -172 0
-133 150 -155 0
-150 155 172 0
133 -150 172 0
133 -150 155 0
-143 -150 172 0
-143 -150 155 0
133 -143 -150 0
143 150 -172 0
143 150 -155 0
-133 143 150 0
-133 143 -155 -172 0
133 -143 155 172 0
-126 139 -147 0
-126 139 -150 0
139 -147 -150 0
126 -139 147 0
126 -139 150 0
-139 147 150 0
-120 126 -139 0
-120 -139 147 0
-120 -139 150 0
120 -126 139 0
120 139 -147 0
120 139 -150 0
120 -126 -147 -150 0
-120 126 147 150 0
119 -124 -135 0
119 -124 -139 0
119 -135 -139 0
-119 124 135 0
-119 124 139 0
-119 135 139 0
-118 -119 124 0
-118 -119 135 0
-118 -119 139 0
118 119 -124 0
118 119 -135 0
118 119 -139 0
118 -124 -135 -139 0
-118 124 135 139 0
117 -122 -128 0
117 -119 -122 0
117 -119 -128 0
-117 122 128 0
-117 119 122 0
-117 119 128 0
-116 -117 122 0
-116 -117 128 0
-116 -117 119 0
116 117 -122 0
116 117 -128 0
116 117 -119 0
116 -119 -122 -128 0
-116 119 122 128 0
115 -151 -158 0
115 -117 -158 0
115 -117 -151 0
-115 151 158 0
-115 117 158 0
-115 117 151 0
-114 -115 158 0
-114 -115 151 0
-114 -115 117 0
114 115 -158 0
114 115 -151 0
114 115 -117 0
114 -117 -151 -158 0
-114 117 151 158 0
113 -144 -146 0
113 -115 -146 0
113 -115 -144 0
-113 144 146 0
-113 115 146 0
-113 115 144 0
-112 -113 146 0
-112 -113 144 0
-112 -113 115 0
112 113 -146 0
112 113 -144 0
112 113 -115 0
112 -115 -144 -146 0
-112 115 144 146 0
111 -140 -153 0
111 -113 -153 0
111 -113 -140 0
-111 140 153 0
-111 113 153 0
-111 113 140 0
-110 -111 153 0
-110 -111 140 0
-110 -111 113 0
110 111 -153 0
110 111 -140 0
110 111 -113 0
110 -113 -140 -153 0
-110 113 140 153 0
-109 143 0
-109 159 0
109 -143 -159 0
-108 -143 -159 0
-108 143 159 0
108 -143 159 0
108 143 -159 0
107 -120 -155 0
107 -109 -120 0
107 -109 -155 0
-107 120 155 0
-107 109 120 0
-107 109 155 0
-106 -107 120 0
-106 -107 155 0
-106 -107 109 0
106 107 -120 0
106 107 -155 0
106 107 -109 0
106 -109 -120 -155 0
-106 109 120 155 0
105 -118 -147 0
105 -107 -118 0
105 -107 -147 0
-105 118 147 0
-105 107 118 0
-105 107 147 0
-105 118 -174 0
-105 147 -174 0
-105 107 -174 0
105 -118 174 0
105 -147 174 0
105 -107 174 0
-107 -118 -147 174 0
107 118 147 -174 0
-116 -135 175 0
-105 -116 175 0
-105 -135 175 0
116 135 -175 0
105 116 -175 0
105 135 -175 0
116 -175 -176 0
135 -175 -176 0
105 -175 -176 0
-116 175 176 0
-135 175 176 0
-105 175 176 0
-105 -116 -135 176 0
105 116 135 -176 0
-114 -128 177 0
-114 -175 177 0
-128 -175 177 0
114 128 -177 0
114 175 -177 0
128 175 -177 0
114 -177 -178 0
128 -177 -178 0
175 -177 -178 0
-114 177 178 0
-128 177 178 0
-175 177 178 0
-114 -128 -175 178 0
114 128 175 -178 0
-112 -151 179 0
-112 -177 179 0
-151 -177 179 0
112 151 -179 0
112 177 -179 0
151 177 -179 0
112 -179 -180 0
151 -179 -180 0
177 -179 -180 0
-112 179 180 0
-151 179 180 0
-177 179 180 0
-112 -151 -177 180 0
112 151 177 -180 0
-110 -144 181 0
-110 -179 181 0
-144 -179 181 0
110 144 -181 0
110 179 -181 0
144 179 -181 0
110 -181 -182 0
144 -181 -182 0
179 -181 -182 0
-110 181 182 0
-144 181 182 0
-179 181 182 0
-110 -144 -179 182 0
110 144 179 -182 0
-111 -140 183 0
-111 -181 183 0
-140 -181 183 0
111 140 -183 0
111 181 -183 0
140 181 -183 0
111 -183 -184 0
140 -183 -184 0
181 -183 -184 0
-111 183 184 0
-140 183 184 0
-181 183 184 0
-111 -140 -181 184 0
111 140 181 -184 0
106 -185 0
159 -185 0
-106 -159 185 0
-106 -159 -186 0
106 159 -186 0
-106 159 186 0
106 -159 186 0
-155 -174 187 0
-174 -185 187 0
-155 -185 187 0
155 174 -187 0
174 185 -187 0
155 185 -187 0
174 -187 -188 0
155 -187 -188 0
185 -187 -188 0
-174 187 188 0
-155 187 188 0
-185 187 188 0
-155 -174 -185 188 0
155 174 185 -188 0
-147 -176 189 0
-176 -187 189 0
-147 -187 189 0
147 176 -189 0
176 187 -189 0
147 187 -189 0
176 -189 -190 0
147 -189 -190 0
187 -189 -190 0
-176 189 190 0
-147 189 190 0
-187 189 190 0
-147 -176 -187 190 0
147 176 187 -190 0
-135 -178 191 0
-178 -189 191 0
-135 -189 191 0
135 178 -191 0
178 189 -191 0
135 189 -191 0
178 -191 -192 0
135 -191 -192 0
189 -191 -192 0
-178 191 192 0
-135 191 192 0
-189 191 192 0
-135 -178 -189 192 0
135 178 189 -192 0
-128 -180 193 0
-180 -191 193 0
-128 -191 193 0
128 180 -193 0
180 191 -193 0
128 191 -193 0
180 -193 -194 0
128 -193 -194 0
191 -193 -194 0
-180 193 194 0
-128 193 194 0
-191 193 194 0
-128 -180 -191 194 0
128 180 191 -194 0
-151 -182 195 0
-182 -193 195 0
-151 -193 195 0
151 182 -195 0
182 193 -195 0
151 193 -195 0
182 -195 -196 0
151 -195 -196 0
193 -195 -196 0
-182 195 196 0
-151 195 196 0
-193 195 196 0
-151 -182 -193 196 0
151 182 193 -196 0
-144 -184 197 0
-184 -195 197 0
-144 -195 197 0
144 184 -197 0
184 195 -197 0
144 195 -197 0
184 -197 -198 0
144 -197 -198 0
195 -197 -198 0
-184 197 198 0
-144 197 198 0
-195 197 198 0
-144 -184 -195 198 0
144 184 195 -198 0
-140 -183 199 0
-183 -197 199 0
-140 -197 199 0
140 183 -199 0
183 197 -199 0
140 197 -199 0
183 -199 -200 0
140 -199 -200 0
197 -199 -200 0
-183 199 200 0
-140 199 200 0
-197 199 200 0
-140 -183 -197 200 0
140 183 197 -200 0
188 -201 0
159 -201 0
-159 -188 201 0
-159 -188 -202 0
159 188 -202 0
159 -188 202 0
-159 188 202 0
-155 -190 203 0
-190 -201 203 0
-155 -201 203 0
155 190 -203 0
190 201 -203 0
155 201 -203 0
190 -203 -204 0
155 -203 -204 0
201 -203 -204 0
-190 203 204 0
-155 203 204 0
-201 203 204 0
-155 -190 -201 204 0
155 190 201 -204 0
-147 -192 205 0
-192 -203 205 0
-147 -203 205 0
147 192 -205 0
192 203 -205 0
147 203 -205 0
192 -205 -206 0
147 -205 -206 0
203 -205 -206 0
-192 205 206 0
-147 205 206 0
-203 205 206 0
-147 -192 -203 206 0
147 192 203 -206 0
-135 -194 207 0
-194 -205 207 0
-135 -205 207 0
135 194 -207 0
194 205 -207 0
135 205 -207 0
194 -207 -208 0
135 -207 -208 0
205 -207 -208 0
-194 207 208 0
-135 207 208 0
-205 207 208 0
-135 -194 -205 208 0
135 194 205 -208 0
-128 -196 209 0
-196 -207 209 0
-128 -207 209 0
128 196 -209 0
196 207 -209 0
128 207 -209 0
196 -209 -210 0
128 -209 -210 0
207 -209 -210 0
-196 209 210 0
-128 209 210 0
-207 209 210 0
-128 -196 -207 210 0
128 196 207 -210 0
-151 -198 211 0
-198 -209 211 0
-151 -209 211 0
151 198 -211 0
198 209 -211 0
151 209 -211 0
198 -211 -212 0
151 -211 -212 0
209 -211 -212 0
-198 211 212 0
-151 211 212 0
-209 211 212 0
-151 -198 -209 212 0
151 198 209 -212 0
-144 -200 213 0
-200 -211 213 0
-144 -211 213 0
144 200 -213 0
200 211 -213 0
144 211 -213 0
200 -213 -214 0
144 -213 -214 0
211 -213 -214 0
-200 213 214 0
-144 213 214 0
-211 213 214 0
-144 -200 -211 214 0
144 200 211 -214 0
-140 -199 215 0
-199 -213 215 0
-140 -213 215 0
140 199 -215 0
199 213 -215 0
140 213 -215 0
199 -215 -216 0
140 -215 -216 0
213 -215 -216 0
-199 215 216 0
-140 215 216 0
-213 215 216 0
-140 -199 -213 216 0
140 199 213 -216 0
-159 -217 0
-168 -217 0
159 168 217 0
159 -160 168 0
-159 -160 -168 0
-159 160 168 0
159 160 -168 0
-156 217 0
-127 -156 0
127 156 -217 0
127 -148 -217 0
-127 -148 217 0
127 148 217 0
-127 148 -217 0
-136 156 0
-108 -136 0
108 136 -156 0
108 -129 -156 0
-108 -129 156 0
108 129 156 0
-108 129 -156 0
136 -152 0
-152 -186 0
-136 152 186 0
-136 -145 186 0
136 -145 -186 0
136 145 186 0
-136 145 -186 0
-141 152 0
-141 -202 0
141 -152 202 0
-152 202 -218 0
152 -202 -218 0
152 202 218 0
-152 -202 218 0
141 -219 0
-204 -219 0
-141 204 219 0
-141 204 -220 0
141 -204 -220 0
141 204 220 0
-141 -204 220 0
219 -221 0
-206 -221 0
206 -219 221 0
206 -219 -222 0
-206 219 -222 0
206 219 222 0
-206 -219 222 0
221 -223 0
-208 -223 0
208 -221 223 0
208 -221 -224 0
-208 221 -224 0
208 221 224 0
-208 -221 224 0
223 -225 0
-210 -225 0
210 -223 225 0
210 -223 -226 0
-210 223 -226 0
210 223 226 0
-210 -223 226 0
225 -227 0
-212 -227 0
212 -225 227 0
212 -225 -228 0
-212 225 -228 0
212 225 228 0
-212 -225 228 0
227 -229 0
-214 -229 0
214 -227 229 0
214 -227 -230 0
-214 227 -230 0
214 227 230 0
-214 -227 230 0
229 -231 0
-216 -231 0
216 -229 231 0
216 -229 -232 0
-216 229 -232 0
216 229 232 0
-216 -229 232 0
231 -233 0
-215 -233 0
215 -231 233 0
-104 215 -231 0
-104 -215 231 0
104 215 231 0
104 -215 -231 0
-102 -103 0
-101 -102 0
101 102 103 0
-100 101 103 0
-100 -101 -103 0
100 101 -103 0
100 -101 103 0
-99 102 0
-98 -99 0
98 99 -102 0
-97 98 -102 0
-97 -98 102 0
97 98 102 0
97 -98 -102 0
-96 99 0
-95 -96 0
95 96 -99 0
-94 95 -99 0
-94 -95 99 0
94 95 99 0
94 -95 -99 0
-93 96 0
-92 -93 0
92 93 -96 0
-91 92 -96 0
-91 -92 96 0
91 92 96 0
91 -92 -96 0
-90 93 0
-89 -90 0
89 90 -93 0
-88 89 -93 0
-88 -89 93 0
88 89 93 0
88 -89 -93 0
-87 90 0
-86 -87 0
86 87 -90 0
-85 86 -90 0
-85 -86 90 0
85 86 90 0
85 -86 -90 0
-84 87 0
-83 -84 0
83 84 -87 0
-82 83 -87 0
-82 -83 87 0
82 83 87 0
82 -83 -87 0
-81 101 0
-81 103 0
81 -101 -103 0
-80 -101 -103 0
-80 101 103 0
80 -101 103 0
80 101 -103 0
79 -98 -101 0
79 -81 -98 0
79 -81 -101 0
-79 98 101 0
-79 81 98 0
-79 81 101 0
-78 -79 98 0
-78 -79 101 0
-78 -79 81 0
78 79 -98 0
78 79 -101 0
78 79 -81 0
78 -81 -98 -101 0
-78 81 98 101 0
77 -95 -98 0
77 -79 -95 0
77 -79 -98 0
-77 95 98 0
-77 79 95 0
-77 79 98 0
-76 -77 95 0
-76 -77 98 0
-76 -77 79 0
76 77 -95 0
76 77 -98 0
76 77 -79 0
76 -79 -95 -98 0
-76 79 95 98 0
75 -92 -95 0
75 -77 -92 0
75 -77 -95 0
-75 92 95 0
-75 77 92 0
-75 77 95 0
-74 -75 92 0
-74 -75 95 0
-74 -75 77 0
74 75 -92 0
74 75 -95 0
74 75 -77 0
74 -77 -92 -95 0
-74 77 92 95 0
73 -89 -92 0
73 -75 -89 0
73 -75 -92 0
-73 89 92 0
-73 75 89 0
-73 75 92 0
-72 -73 89 0
-72 -73 92 0
-72 -73 75 0
72 73 -89 0
72 73 -92 0
72 73 -75 0
72 -75 -89 -92 0
-72 75 89 92 0
71 -86 -89 0
71 -73 -86 0
71 -73 -89 0
-71 86 89 0
-71 73 86 0
-71 73 89 0
-70 -71 86 0
-70 -71 89 0
-70 -71 73 0
70 71 -86 0
70 71 -89 0
70 71 -73 0
70 -73 -86 -89 0
-70 73 86 89 0
69 -83 -86 0
69 -71 -83 0
69 -71 -86 0
-69 83 86 0
-69 71 83 0
-69 71 86 0
-68 -69 83 0
-68 -69 86 0
-68 -69 71 0
68 69 -83 0
68 69 -86 0
68 69 -71 0
68 -71 -83 -86 0
-68 71 83 86 0
-67 83 0
-67 69 0
67 -69 -83 0
-66 -69 -83 0
-66 69 83 0
66 69 -83 0
66 -69 83 0
-65 78 0
-65 103 0
65 -78 -103 0
-64 -78 -103 0
-64 78 103 0
64 -78 103 0
64 78 -103 0
63 -76 -101 0
63 -65 -76 0
63 -65 -101 0
-63 76 101 0
-63 65 76 0
-63 65 101 0
-62 -63 76 0
-62 -63 101 0
-62 -63 65 0
62 63 -76 0
62 63 -101 0
62 63 -65 0
62 -65 -76 -101 0
-62 65 76 101 0
61 -74 -98 0
61 -63 -74 0
61 -63 -98 0
-61 74 98 0
-61 63 74 0
-61 63 98 0
-60 -61 74 0
-60 -61 98 0
-60 -61 63 0
60 61 -74 0
60 61 -98 0
60 61 -63 0
60 -63 -74 -98 0
-60 63 74 98 0
59 -72 -95 0
59 -61 -72 0
59 -61 -95 0
-59 72 95 0
-59 61 72 0
-59 61 95 0
-58 -59 72 0
-58 -59 95 0
-58 -59 61 0
58 59 -72 0
58 59 -95 0
58 59 -61 0
58 -61 -72 -95 0
-58 61 72 95 0
57 -70 -92 0
57 -59 -70 0
57 -59 -92 0
-57 70 92 0
-57 59 70 0
-57 59 92 0
-56 -57 70 0
-56 -57 92 0
-56 -57 59 0
56 57 -70 0
56 57 -92 0
56 57 -59 0
56 -59 -70 -92 0
-56 59 70 92 0
55 -68 -89 0
55 -57 -68 0
55 -57 -89 0
-55 68 89 0
-55 57 68 0
-55 57 89 0
-54 -55 68 0
-54 -55 89 0
-54 -55 57 0
54 55 -68 0
54 55 -89 0
54 55 -57 0
54 -57 -68 -89 0
-54 57 68 89 0
53 -66 -86 0
53 -55 -66 0
53 -55 -86 0
-53 66 86 0
-53 55 66 0
-53 55 86 0
-52 -53 66 0
-52 -53 86 0
-52 -53 55 0
52 53 -66 0
52 53 -86 0
52 53 -55 0
52 -55 -66 -86 0
-52 55 66 86 0
51 -67 -83 0
51 -53 -67 0
51 -53 -83 0
-51 67 83 0
-51 53 67 0
-51 53 83 0
-50 -51 67 0
-50 -51 83 0
-50 -51 53 0
50 51 -67 0
50 51 -83 0
50 51 -53 0
50 -53 -67 -83 0
-50 53 67 83 0
-49 62 0
-49 103 0
49 -62 -103 0
-48 -62 -103 0
-48 62 103 0
48 -62 103 0
48 62 -103 0
47 -60 -101 0
47 -49 -60 0
47 -49 -101 0
-47 60 101 0
-47 49 60 0
-47 49 101 0
-46 -47 60 0
-46 -47 101 0
-46 -47 49 0
46 47 -60 0
46 47 -101 0
46 47 -49 0
46 -49 -60 -101 0
-46 49 60 101 0
45 -58 -98 0
45 -47 -58 0
45 -47 -98 0
-45 58 98 0
-45 47 58 0
-45 47 98 0
-44 -45 58 0
-44 -45 98 0
-44 -45 47 0
44 45 -58 0
44 45 -98 0
44 45 -47 0
44 -47 -58 -98 0
-44 47 58 98 0
43 -56 -95 0
43 -45 -56 0
43 -45 -95 0
-43 56 95 0
-43 45 56 0
-43 45 95 0
-42 -43 56 0
-42 -43 95 0
-42 -43 45 0
42 43 -56 0
42 43 -95 0
42 43 -45 0
42 -45 -56 -95 0
-42 45 56 95 0
41 -54 -92 0
41 -43 -54 0
41 -43 -92 0
-41 54 92 0
-41 43 54 0
-41 43 92 0
-40 -41 54 0
-40 -41 92 0
-40 -41 43 0
40 41 -54 0
40 41 -92 0
40 41 -43 0
40 -43 -54 -92 0
-40 43 54 92 0
39 -52 -89 0
39 -41 -52 0
39 -41 -89 0
-39 52 89 0
-39 41 52 0
-39 41 89 0
-38 -39 52 0
-38 -39 89 0
-38 -39 41 0
38 39 -52 0
38 39 -89 0
38 39 -41 0
38 -41 -52 -89 0
-38 41 52 89 0
37 -50 -86 0
37 -39 -50 0
37 -39 -86 0
-37 50 86 0
-37 39 50 0
-37 39 86 0
-36 -37 50 0
-36 -37 86 0
-36 -37 39 0
36 37 -50 0
36 37 -86 0
36 37 -39 0
36 -39 -50 -86 0
-36 39 50 86 0
35 -51 -83 0
35 -37 -51 0
35 -37 -83 0
-35 51 83 0
-35 37 51 0
-35 37 83 0
-34 -35 51 0
-34 -35 83 0
-34 -35 37 0
34 35 -51 0
34 35 -83 0
34 35 -37 0
34 -37 -51 -83 0
-34 37 51 83 0
-33 -103 0
-33 -80 0
33 80 103 0
-32 80 103 0
-32 -80 -103 0
32 80 -103 0
32 -80 103 0
-31 33 0
-31 -64 0
31 -33 64 0
-30 -33 64 0
-30 33 -64 0
30 33 64 0
30 -33 -64 0
-29 31 0
-29 -48 0
29 -31 48 0
-28 -31 48 0
-28 31 -48 0
28 31 48 0
28 -31 -48 0
-27 29 0
-27 -46 0
27 -29 46 0
-26 -29 46 0
-26 29 -46 0
26 29 46 0
26 -29 -46 0
-25 27 0
-25 -44 0
25 -27 44 0
-24 -27 44 0
-24 27 -44 0
24 27 44 0
24 -27 -44 0
-23 25 0
-23 -42 0
23 -25 42 0
-22 -25 42 0
-22 25 -42 0
22 25 42 0
22 -25 -42 0
-21 23 0
-21 -40 0
21 -23 40 0
-20 -23 40 0
-20 23 -40 0
20 23 40 0
20 -23 -40 0
-19 21 0
-19 -38 0
19 -21 38 0
-18 -21 38 0
-18 21 -38 0
18 21 38 0
18 -21 -38 0
-17 19 0
-17 -36 0
17 -19 36 0
-16 -19 36 0
-16 19 -36 0
16 19 36 0
16 -19 -36 0
-15 17 0
-15 -34 0
15 -17 34 0
-14 -17 34 0
-14 17 -34 0
14 17 34 0
14 -17 -34 0
-13 15 0
-13 -35 0
13 -15 35 0
-12 -15 35 0
-12 15 -35 0
12 15 35 0
12 -15 -35 0
-11 159 0
-11 103 0
11 -103 -159 0
103 -159 0
-103 159 0
10 -80 -168 0
10 -11 -168 0
10 -11 -80 0
-10 80 168 0
-10 11 168 0
-10 11 80 0
-10 168 0
-10 80 0
-10 11 0
11 80 168 0
9 -64 -127 0
9 -10 -127 0
9 -10 -64 0
-9 64 127 0
-9 10 127 0
-9 10 64 0
-9 127 0
-9 64 0
-9 10 0
10 64 127 0
8 -48 -108 0
8 -9 -108 0
8 -9 -48 0
-8 48 108 0
-8 9 108 0
-8 9 48 0
8 -108 0
8 -48 0
8 -9 0
-9 -48 -108 0
7 -46 -186 0
7 -8 -186 0
7 -8 -46 0
-7 46 186 0
-7 8 186 0
-7 8 46 0
-7 186 0
-7 46 0
-7 8 0
8 46 186 0
6 -44 -202 0
6 -7 -202 0
6 -7 -44 0
-6 44 202 0
-6 7 202 0
-6 7 44 0
6 -202 0
6 -44 0
6 -7 0
-7 -44 -202 0
5 -42 -204 0
5 -6 -204 0
5 -6 -42 0
-5 42 204 0
-5 6 204 0
-5 6 42 0
-5 204 0
-5 42 0
-5 6 0
6 42 204 0
4 -40 -206 0
4 -5 -206 0
4 -5 -40 0
-4 40 206 0
-4 5 206 0
-4 5 40 0
-4 206 0
-4 40 0
-4 5 0
5 40 206 0
3 -38 -208 0
3 -4 -208 0
3 -4 -38 0
-3 38 208 0
-3 4 208 0
-3 4 38 0
3 -208 0
3 -38 0
3 -4 0
-4 -38 -208 0
2 -36 -210 0
2 -3 -210 0
2 -3 -36 0
-2 36 210 0
-2 3 210 0
-2 3 36 0
2 -210 0
2 -36 0
2 -3 0
-3 -36 -210 0
1 -34 -212 0
1 -2 -212 0
1 -2 -34 0
-1 34 212 0
-1 2 212 0
-1 2 34 0
1 -212 0
1 -34 0
1 -2 0
-2 -34 -212 0
-35 154 -214 0
-1 154 -214 0
-1 -35 154 0
35 -154 214 0
1 -154 214 0
1 35 -154 0
154 -214 0
-35 154 0
-1 154 0
-1 -35 -214 0
-134 216 0
-134 154 0
134 -154 -216 0
154 -216 0
-154 216 0
-134 -215 0
134 -215 0
-134 215 0
